sifdecoder -A pc64.lnx.gfo -st   AUG2DCQP

 Problem name: AUG2DCQP

 Double precision version will be formed

 The objective function uses 20200 nonlinear groups
 
 There are 10000 linear equality constraints
 
 There are 20200 variables bounded only from below 
 
 
 File successfully decoded
 CUTEST: tools (double precision version) compiled successfully
 CUTEst: ipopt (double precision version) compiled successfully

******************************************************************************
This program contains Ipopt, a library for large-scale nonlinear optimization.
 Ipopt is released as open source code under the Eclipse Public License (EPL).
         For more information visit http://projects.coin-or.org/Ipopt
******************************************************************************

This is Ipopt version trunk, running with linear solver ma57.

Number of nonzeros in equality constraint Jacobian...:    40000
Number of nonzeros in inequality constraint Jacobian.:        0
Number of nonzeros in Lagrangian Hessian.............:    20200

Total number of variables............................:    20200
                     variables with only lower bounds:    20200
                variables with lower and upper bounds:        0
                     variables with only upper bounds:        0
Total number of equality constraints.................:    10000
Total number of inequality constraints...............:        0
        inequality constraints with only lower bounds:        0
   inequality constraints with lower and upper bounds:        0
        inequality constraints with only upper bounds:        0

iter    objective    inf_pr   inf_du lg(mu)  ||d||  lg(rg) alpha_du alpha_pr  ls
   0  9.8505002e+03 2.00e+00 2.19e+00  -1.0 0.00e+00    -  0.00e+00 0.00e+00   0
   1  9.8470237e+03 2.00e+00 2.19e+00  -1.0 3.37e+01    -  2.94e-04 3.04e-04h  1
   2  9.8351687e+03 2.00e+00 1.13e+01  -1.0 6.20e+01    -  3.18e-04 5.60e-05f  1
   3  9.7812007e+03 2.00e+00 1.45e+01  -1.0 8.17e+01    -  2.58e-04 1.94e-04f  1
   4  9.7117235e+03 2.00e+00 1.82e+01  -1.0 9.37e+01    -  3.16e-04 2.28e-04f  1
   5  9.6379156e+03 2.00e+00 2.13e+01  -1.0 1.03e+02    -  3.61e-04 2.35e-04f  1
   6  9.5842965e+03 2.00e+00 2.84e+01  -1.0 1.07e+02    -  4.00e-04 1.70e-04f  1
   7  9.4700201e+03 2.00e+00 2.95e+01  -1.0 1.09e+02    -  4.03e-04 3.67e-04f  1
   8  8.5407130e+03 1.99e+00 8.95e+01  -1.0 1.07e+02    -  6.55e-04 3.30e-03f  1
   9  6.4942210e+03 1.96e+00 2.26e+02  -1.0 9.11e+01    -  2.28e-03 1.60e-02f  1
iter    objective    inf_pr   inf_du lg(mu)  ||d||  lg(rg) alpha_du alpha_pr  ls
  10  2.4523034e+04 1.86e+00 3.98e+02  -1.0 8.78e+01    -  1.00e-02 4.94e-02h  1
  11  6.4179518e+04 1.78e+00 5.02e+02  -1.0 7.30e+01    -  7.37e-03 4.41e-02h  1
  12  9.3209695e+05 1.22e+00 1.20e+03  -1.0 6.39e+01    -  1.37e-02 3.12e-01h  1
  13  1.1361561e+06 1.15e+00 1.18e+03  -1.0 3.90e+01    -  4.35e-02 6.47e-02h  1
  14  6.5063554e+06 1.42e-14 2.35e+03  -1.0 3.58e+01    -  5.12e-02 1.00e+00h  1
  15  6.5041503e+06 2.84e-14 1.82e+03  -1.0 3.97e+00    -  2.27e-01 1.65e-01f  1
  16  6.4982172e+06 2.13e-14 1.18e+03  -1.0 3.44e+00    -  3.45e-01 1.00e+00f  1
  17  6.4981539e+06 1.42e-14 2.49e-01  -1.0 4.66e-01    -  1.00e+00 8.93e-01f  1
  18  6.4981356e+06 1.42e-14 8.55e-02  -2.5 2.34e-01    -  9.48e-01 1.00e+00f  1
  19  6.4981348e+06 1.42e-14 2.37e-03  -3.8 7.41e-02    -  9.86e-01 1.00e+00f  1
iter    objective    inf_pr   inf_du lg(mu)  ||d||  lg(rg) alpha_du alpha_pr  ls
  20  6.4981348e+06 1.44e-14 1.50e-09  -3.8 3.80e-02    -  1.00e+00 1.00e+00f  1
  21  6.4981348e+06 1.51e-14 1.50e-09  -3.8 1.81e-02    -  1.00e+00 1.00e+00f  1
  22  6.4981347e+06 1.79e-14 1.91e-11  -5.7 1.04e-02    -  1.00e+00 1.00e+00f  1
  23  6.4981347e+06 1.42e-14 1.91e-11  -5.7 4.69e-03    -  1.00e+00 1.00e+00f  1
  24  6.4981347e+06 1.68e-14 1.89e-11  -5.7 1.96e-03    -  1.00e+00 1.00e+00f  1
  25  6.4981347e+06 1.42e-14 2.55e-05  -8.6 9.80e-04    -  1.00e+00 9.86e-01f  1
  26  6.4981347e+06 2.84e-14 9.09e-13  -8.6 3.73e-04    -  1.00e+00 1.00e+00f  1
  27  6.4981347e+06 1.42e-14 4.75e-13  -8.6 7.72e-05    -  1.00e+00 1.00e+00h  1
  28  6.4981347e+06 1.51e-14 9.09e-13  -9.0 4.30e-06    -  1.00e+00 1.00e+00h  1

Number of Iterations....: 28

                                   (scaled)                 (unscaled)
Objective...............:   6.4981347356455894e+06    6.4981347356455894e+06
Dual infeasibility......:   9.0949470177292824e-13    9.0949470177292824e-13
Constraint violation....:   1.5099033134902129e-14    1.5099033134902129e-14
Complementarity.........:   9.4540149043198048e-10    9.4540149043198048e-10
Overall NLP error.......:   9.4540149043198048e-10    9.4540149043198048e-10


Number of objective function evaluations             = 29
Number of objective gradient evaluations             = 29
Number of equality constraint evaluations            = 29
Number of inequality constraint evaluations          = 0
Number of equality constraint Jacobian evaluations   = 29
Number of inequality constraint Jacobian evaluations = 0
Number of Lagrangian Hessian evaluations             = 28
Total CPU secs in IPOPT (w/o function evaluations)   =      3.724
Total CPU secs in NLP function evaluations           =      0.716

EXIT: Optimal Solution Found.

************************ CUTEst statistics ************************


 Package used            :  IPOPT
 Problem                 :  AUG2DCQP  
 # variables             =           20200
 # constraints           =           10000
 # objective functions   =        0.5900000E+02
 # objective gradients   =        0.3000000E+02
 # objective Hessians    =        0.2900000E+02
 # Hessian-vector prdct  =        0.0000000E+00
 # constraints functions =        0.6000000E+02
 # constraints gradients =        0.3100000E+02
 # constraints Hessians  =        0.2900000E+02
 Exit code               =               0
 Final f                 =        6.4981347356455894D+06
 Bounds feasibility      =        9.9996734040346482D-09
 Set up time             =            0.74 seconds
 Solve time              =            9.04 seconds


******************************************************************

